NAME: map0_180
TYPE: TSP
COMMENT: autogenerated using a wonderful map creator
DIMENSION: 210
EDGE_WEIGHT_TYPE: EUC_2D
NODE_COORD_SECTION
1 21.0 52.0
2 22.0 52.0
3 23.0 52.0
4 21.0 54.0
5 22.0 54.0
6 23.0 54.0
7 22.0 11.0
8 22.0 10.0
9 75.0 8.0
10 74.0 8.0
11 67.0 37.0
12 67.0 38.0
13 67.0 39.0
14 67.0 40.0
15 67.0 41.0
16 24.0 52.0
17 25.0 52.0
18 24.0 54.0
19 25.0 54.0
20 22.0 9.0
21 22.0 8.0
22 22.0 7.0
23 73.0 8.0
24 72.0 8.0
25 71.0 8.0
26 67.0 42.0
27 67.0 43.0
28 67.0 44.0
29 67.0 45.0
30 67.0 46.0
31 21.0 51.0
32 22.0 51.0
33 23.0 51.0
34 21.0 55.0
35 22.0 55.0
36 23.0 55.0
37 23.0 11.0
38 23.0 10.0
39 75.0 9.0
40 74.0 9.0
41 66.0 37.0
42 66.0 38.0
43 66.0 39.0
44 66.0 40.0
45 66.0 41.0
46 24.0 51.0
47 25.0 51.0
48 24.0 55.0
49 25.0 55.0
50 23.0 9.0
51 23.0 8.0
52 23.0 7.0
53 73.0 9.0
54 72.0 9.0
55 71.0 9.0
56 66.0 42.0
57 66.0 43.0
58 66.0 44.0
59 66.0 45.0
60 66.0 46.0
61 52.0 40.0
62 72.0 18.0
63 62.0 17.0
64 54.0 13.0
65 53.0 23.0
66 64.0 23.0
67 10.0 52.0
68 59.0 18.0
69 53.0 32.0
70 57.0 57.0
71 38.0 53.0
72 49.0 53.0
73 11.0 23.0
74 41.0 24.0
75 66.0 23.0
76 68.0 20.0
77 44.0 20.0
78 24.0 26.0
79 54.0 6.0
80 50.0 54.0
81 10.0 36.0
82 53.0 16.0
83 56.0 3.0
84 59.0 11.0
85 42.0 59.0
86 44.0 56.0
87 31.0 22.0
88 54.0 24.0
89 53.0 34.0
90 36.0 18.0
91 55.0 22.0
92 12.0 27.0
93 23.0 27.0
94 28.0 23.0
95 58.0 24.0
96 59.0 32.0
97 14.0 42.0
98 10.0 20.0
99 13.0 19.0
100 55.0 52.0
101 10.0 29.0
102 35.0 28.0
103 45.0 60.0
104 54.0 8.0
105 8.0 59.0
106 10.0 56.0
107 12.0 20.0
108 39.0 46.0
109 66.0 18.0
110 44.0 24.0
111 44.0 33.0
112 11.0 39.0
113 54.0 19.0
114 8.0 27.0
115 36.0 43.0
116 42.0 29.0
117 65.0 24.0
118 62.0 7.0
119 63.0 6.0
120 63.0 15.0
121 40.0 22.0
122 20.0 19.0
123 34.0 18.0
124 29.0 22.0
125 40.0 31.0
126 31.0 28.0
127 38.0 43.0
128 70.0 29.0
129 38.0 61.0
130 55.0 40.0
131 58.0 39.0
132 27.0 24.0
133 55.0 58.0
134 37.0 44.0
135 57.0 22.0
136 68.0 22.0
137 37.0 53.0
138 62.0 18.0
139 54.0 14.0
140 10.0 44.0
141 57.0 40.0
142 21.0 20.0
143 40.0 42.0
144 69.0 23.0
145 47.0 29.0
146 6.0 58.0
147 50.0 28.0
148 54.0 53.0
149 10.0 37.0
150 3.0 53.0
151 60.0 50.0
152 56.0 13.0
153 41.0 46.0
154 38.0 29.0
155 9.0 57.0
156 22.0 20.0
157 38.0 38.0
158 14.0 25.0
159 12.0 37.0
160 8.0 24.0
161 33.0 23.0
162 63.0 3.0
163 45.0 61.0
164 40.0 19.0
165 12.0 21.0
166 55.0 19.0
167 70.0 17.0
168 10.0 60.0
169 70.0 26.0
170 42.0 19.0
171 36.0 33.0
172 61.0 32.0
173 10.0 23.0
174 53.0 58.0
175 57.0 19.0
176 54.0 2.0
177 12.0 51.0
178 43.0 29.0
179 54.0 11.0
180 12.0 60.0
181 13.0 25.0
182 41.0 41.0
183 6.0 19.0
184 51.0 51.0
185 43.0 47.0
186 6.0 28.0
187 7.0 27.0
188 67.0 14.0
189 53.0 24.0
190 78.0 23.0
191 44.0 55.0
192 43.0 56.0
193 10.0 53.0
194 54.0 32.0
195 30.0 19.0
196 37.0 34.0
197 66.0 15.0
198 57.0 12.0
199 54.0 59.0
200 66.0 24.0
201 42.0 51.0
202 13.0 45.0
203 73.0 29.0
204 61.0 9.0
205 39.0 36.0
206 53.0 35.0
207 59.0 30.0
208 17.0 24.0
209 30.0 21.0
210 8.0 21.0
211 37.0 36.0
212 37.0 45.0
213 41.0 27.0
214 66.0 26.0
215 63.0 9.0
216 72.0 14.0
217 13.0 29.0
218 38.0 28.0
219 26.0 26.0
220 15.0 26.0
221 51.0 55.0
222 60.0 3.0
223 59.0 51.0
224 13.0 56.0
225 53.0 37.0
226 40.0 46.0
227 76.0 20.0
228 68.0 25.0
229 15.0 19.0
230 4.0 53.0
231 13.0 31.0
232 21.0 23.0
233 3.0 20.0
234 56.0 35.0
235 39.0 49.0
236 38.0 51.0
237 56.0 44.0
238 9.0 24.0
239 11.0 21.0
240 66.0 21.0
START_DEPOT_SECTION
1
2
3
4
5
6
7
8
9
10
11
12
13
14
15
16
17
18
19
20
21
22
23
24
25
26
27
28
29
30
-1
END_DEPOT_SECTION
31
32
33
34
35
36
37
38
39
40
41
42
43
44
45
46
47
48
49
50
51
52
53
54
55
56
57
58
59
60
-1
EOF
